231
Exposed_atoms
C -0.453037 10.378968 2.316035
C 15.527967 9.318970 8.736045
C -2.570989 6.779035 15.559039
C 6.595526 3.906898 20.795925
C 7.736002 5.085980 22.131967
C 2.689159 7.113979 28.716627
C 3.016679 8.822884 28.629053
C -4.294231 10.779408 20.304730
C -4.940020 13.684044 14.352979
C 6.034035 11.794034 30.093010
C 4.401184 20.541837 17.681580
C 7.221010 17.765028 28.689030
C 8.369915 21.540319 12.785835
C 2.364047 19.024042 15.348013
C 0.655022 16.894025 17.893026
C 0.679723 17.953069 10.004974
C 3.170047 14.710000 2.433965
C 6.434666 16.596357 2.478239
C 3.754042 18.461036 3.831960
C 10.016488 23.179829 22.178851
C 12.774009 22.953046 14.008983
C 18.229027 16.622963 21.103048
C 14.609002 20.905014 25.483623
C 10.050044 22.859959 27.207022
C 12.172043 20.818018 30.681025
C 13.463312 18.400698 31.828492
C 8.546954 14.516006 34.314961
C 23.573757 11.735262 25.939195
C 12.637429 10.702430 32.526253
C 8.949765 11.714319 34.282108
C 10.547722 5.771813 28.513710
C 16.118990 7.266801 22.426011
C 9.181995 2.588014 14.107030
C 9.871192 8.254725 6.227619
C 11.596172 8.646266 6.323459
C -0.066196 8.281485 2.623293
C 2.328133 8.144630 2.551904
C 0.482039 3.807035 9.432997
C 2.053075 9.337747 1.372123
C -0.854198 9.841338 6.146719
C -0.907958 10.080008 7.075031
C -1.292973 9.679020 9.480031
C -3.346847 11.035356 10.189042
C -1.258204 10.970048 7.157212
C -1.427083 10.284411 2.667944
C 2.567610 11.727771 1.822099
C -0.475658 10.358433 1.276441
C 3.951177 9.916112 2.931698
C 4.510727 12.602577 2.896727
C 7.521049 8.519960 4.401013
C 6.410049 6.617028 4.667022
C -3.548019 10.216036 14.784038
C -4.815322 11.811351 16.240868
C -3.247528 9.908220 11.377627
C 0.070863 6.326148 10.715951
C 1.675014 3.915032 11.322010
C -2.660022 7.613043 16.461987
C -4.526750 7.107304 17.083425
C -3.741020 7.726957 17.219995
C -3.779039 9.991033 20.118951
C 2.822721 7.156659 19.518219
C 4.147194 5.870458 18.758905
C 6.415916 4.701448 18.538604
C 5.824007 4.563958 20.561974
C 7.503042 5.514002 25.882974
C 4.964705 4.008774 20.375204
C 4.362743 7.296856 30.830803
C 5.976476 7.717036 30.573699
C 4.998994 7.895990 30.266973
C 3.664466 6.849870 26.344977
C 5.135996 6.544046 28.633746
C -1.244645 8.904589 22.194408
C -3.119866 8.626154 23.228131
C 2.184511 7.919919 26.433947
C -2.932978 9.331044 23.926994
C -3.607041 9.474927 24.665280
C -1.548960 10.965982 24.698999
C 5.202122 11.087147 30.228360
C 1.572582 14.783022 23.902202
C -4.863005 11.993042 18.830002
C -4.283992 13.065994 18.617971
C -4.010007 13.837032 19.538011
C -4.525664 14.352407 16.885346
C 7.983691 14.027221 35.123627
C 7.866664 14.613942 33.456208
C 6.070668 12.430441 30.989454
C 1.647832 13.388950 26.031841
C 2.728038 13.593965 26.066013
C 2.810247 15.842039 24.598488
C 2.866290 14.520469 26.642691
C 4.313575 16.238885 27.709208
C 5.113032 16.472983 27.231973
C 7.069486 20.163848 24.612515
C 6.870983 20.259005 22.042994
C 5.837026 18.120962 25.412954
C 7.834963 21.846814 27.781866
C 7.477377 20.091820 29.480602
C 8.053943 22.400570 29.428693
C 5.496550 21.901656 17.979906
C 8.079006 21.961976 15.074959
C 5.407968 20.931014 17.470017
C 5.462589 21.124269 16.388521
C 7.729776 21.680802 17.586010
C 0.862967 17.979956 16.969957
C -0.196438 16.934794 18.572345
C 0.137832 18.791609 16.911116
C -5.981317 17.430582 15.310840
C -5.124994 17.193960 14.947016
C -4.838200 17.874697 14.333883
C -2.354964 17.310991 13.512979
C 2.667696 19.268084 9.442415
C 2.364626 19.356262 11.185588
C 3.091473 19.136804 3.670832
C 1.571033 17.680000 5.335004
C -0.951287 17.112216 4.844871
C -0.936040 16.214959 5.480981
C 1.200131 15.955685 3.554782
C -1.981804 15.942384 5.685964
C -0.811982 14.767986 3.583004
C -1.701620 14.535117 3.777677
C -6.810059 13.809953 10.575169
C -5.951997 14.208002 10.738992
C 6.907828 14.977433 2.521295
C 6.799015 15.840037 3.091989
C 7.629492 18.360462 3.841714
C 6.253269 19.450480 6.107330
C 4.488239 18.580935 3.225245
C 5.907005 20.419001 8.910002
C 7.290927 20.996245 10.763696
C 11.704192 22.548835 20.661340
C 10.400033 22.189479 19.517586
C 8.849390 21.022726 9.995937
C 11.646142 18.950384 6.475938
C 8.746581 16.399743 2.835383
C 10.134017 14.101047 5.385998
C 10.670243 11.700981 4.937975
C 21.822041 15.728010 18.970960
C 22.426685 16.522769 19.432300
C 22.300337 14.768845 19.218241
C 15.092340 12.464576 13.044441
C 17.198105 10.404766 15.768208
C 15.120848 15.459058 13.489347
C 13.519847 16.126702 10.993920
C 14.844003 16.502008 13.276031
C 21.891719 15.856084 17.880698
C 15.559855 17.145213 13.808725
C 14.042033 21.168965 13.562981
C 14.996219 16.666355 12.199025
C 15.239074 22.640524 4.038450
C 14.424026 22.339951 4.447034
C 14.245391 22.865557 5.230247
C 13.137205 22.833681 16.199707
C 14.994753 21.318043 16.059242
C 14.573724 21.566471 17.648029
C 19.885157 16.718735 19.211396
C 13.584188 22.824195 26.227010
C 17.555108 16.410640 23.504187
C 20.913973 16.403629 21.409775
C 13.006471 22.235498 23.947357
C 9.371997 22.542038 21.931021
C 9.860968 22.241040 28.310980
C 10.749983 22.040990 29.158956
C 9.140805 20.255264 30.001121
C 12.068486 21.769082 30.601481
C 14.618159 19.382060 29.967989
C 14.632085 19.805642 27.752253
C 13.307021 22.019993 26.627003
C 17.377984 17.025005 29.359037
C 16.425670 16.525000 31.483090
C 17.166007 16.054983 30.818954
C 8.791083 15.533021 34.655672
C 15.171005 14.847959 33.817021
C 18.120292 15.968091 31.359200
C 21.080008 12.977975 31.317035
C 22.014415 12.813389 31.170734
C 20.912934 13.922987 31.289743
C 15.684025 14.412133 34.501373
C 12.856704 14.304248 35.637501
C 12.095008 14.834983 35.392973
C 12.069367 15.627262 35.934474
C 10.540989 13.674424 34.804434
C 22.758009 15.267038 22.083046
C 19.190857 15.872856 25.594210
C 21.053365 14.818430 26.581345
C 24.483664 13.173467 21.364311
C 23.042864 12.916117 23.343039
C 24.172478 10.655239 24.973054
C 24.094004 11.458668 21.687974
C 23.369025 10.974988 25.390029
C 22.370882 11.258903 28.315093
C 21.679001 11.920974 28.383009
C 13.234025 9.838219 31.108730
C 11.276969 8.347023 31.890011
C 16.796044 8.659648 24.357996
C 20.476960 9.453033 26.365027
C 14.016599 8.627646 27.152363
C 8.762940 5.747973 28.409134
C 9.573683 6.783238 29.620682
C 9.638954 6.385995 28.596998
C 9.616022 5.404013 23.083991
C 12.698861 4.502347 20.820158
C 12.457955 4.176015 19.949958
C 13.142511 3.584498 19.628833
C 19.079607 8.747311 23.894235
C 20.823652 9.135804 23.972485
C 19.795250 9.227657 21.650965
C 19.372574 9.131762 19.597275
C 17.581016 7.514005 19.053988
C 15.669435 6.791647 17.699611
C 14.254743 5.952766 16.042755
C 16.177553 7.042086 15.258762
C 15.968767 8.897553 13.942288
C 24.339123 9.036945 18.360073
C 23.827972 9.847958 18.410009
C 23.000554 9.734991 17.936555
C 21.439959 11.623027 17.521047
C 12.487996 4.911996 14.891953
C 8.891344 2.607875 15.021686
C 9.018943 1.717012 13.737790
C 9.423980 2.117012 9.480034
C 9.407010 1.308032 8.468973
C 8.923976 1.826988 10.642022
C 10.269994 13.214011 6.225964
C 10.497035 11.955026 5.899992
C 15.502354 10.143902 8.245578
C 15.721505 8.595192 8.135834
C 15.934744 6.844804 12.742696
C 11.080271 3.693278 11.025370
C 15.108234 5.505927 13.556446
C 10.892664 3.448823 8.562620
C 14.007652 6.307574 9.432620
